Minimize
  obj: x0 + x1 + x2 + x3 + x4 + x5 + x6 + x7

Subject To
  c0: x1 + x2 + x4 + x5 + x6 + x7 = 196
  c1: x0 + x4 + x6 = 180
  c2: x1 + x3 + x5 + x7 = 22
  c3: x1 + x2 + x5 + x6 + x7 = 37
  c4: x1 + x3 + x6 = 19
  c5: x0 + x1 + x5 + x6 = 39
  c6: x1 + x2 + x5 = 26
  c7: x2 + x3 + x5 + x7 = 20

Bounds
  x0 >= 0
  x1 >= 0
  x2 >= 0
  x3 >= 0
  x4 >= 0
  x5 >= 0
  x6 >= 0
  x7 >= 0

Generals
  x0 x1 x2 x3 x4 x5 x6 x7

End
